p tw 59 64
1 2
2 13
3 4
3 6
4 5
5 6
5 26
6 7
7 8
8 9
9 10
10 11
11 12
12 14
12 18
13 24
14 15
15 16
16 17
17 22
18 19
19 20
20 21
21 22
22 23
23 25
24 35
25 54
26 27
27 28
27 52
28 29
29 30
29 52
30 31
31 32
32 33
33 34
33 43
34 36
35 46
36 37
37 38
38 39
39 40
40 41
41 42
42 49
43 44
44 45
45 47
46 56
47 48
48 49
49 50
50 51
51 54
52 53
53 54
54 55
56 57
57 58
58 59
59 3
